N = 510;
M = 1226;
Edge_Start = [1, 1, 2, 3, 3, 4, 5, 5, 7, 8, 9, 9, 10, 11, 11, 13, 13, 14, 15, 16, 17, 17, 18, 19, 19, 20, 21, 21, 23, 24, 25, 25, 26, 27, 27, 28, 29, 29, 30, 31, 32, 33, 33, 35, 35, 36, 37, 38, 39, 39, 40, 41, 42, 43, 43, 44, 45, 46, 47, 48, 49, 49, 50, 51, 51, 52, 53, 54, 55, 55, 57, 58, 59, 59, 60, 61, 61, 62, 63, 64, 64, 65, 66, 66, 68, 68, 69, 70, 70, 71, 72, 73, 74, 74, 75, 76, 77, 78, 78, 79, 80, 81, 82, 82, 84, 84, 85, 86, 86, 88, 88, 89, 90, 90, 92, 93, 94, 97, 97, 98, 99, 100, 101, 101, 102, 103, 103, 104, 105, 105, 106, 107, 107, 108, 109, 109, 111, 112, 113, 113, 114, 115, 115, 116, 117, 118, 119, 119, 121, 121, 122, 123, 123, 124, 125, 126, 127, 128, 128, 129, 130, 130, 131, 132, 132, 133, 134, 135, 136, 137, 138, 138, 139, 140, 140, 141, 142, 142, 143, 144, 144, 145, 146, 146, 147, 148, 149, 150, 150, 151, 152, 153, 154, 154, 155, 156, 156, 157, 158, 158, 160, 161, 161, 162, 163, 163, 164, 165, 166, 167, 168, 169, 169, 170, 171, 172, 173, 174, 175, 175, 176, 177, 178, 179, 179, 180, 181, 181, 183, 183, 184, 185, 187, 187, 189, 190, 192, 192, 193, 194, 194, 195, 197, 198, 198, 200, 200, 201, 202, 202, 204, 204, 205, 206, 206, 207, 208, 209, 210, 210, 211, 212, 212, 214, 214, 215, 216, 216, 218, 219, 220, 221, 222, 222, 224, 225, 227, 227, 229, 229, 231, 231, 232, 233, 234, 235, 235, 237, 238, 239, 239, 240, 241, 241, 242, 243, 243, 244, 245, 246, 247, 248, 249, 249, 251, 251, 252, 253, 253, 254, 255, 256, 256, 257, 258, 258, 259, 260, 261, 262, 263, 264, 265, 266, 266, 267, 268, 269, 270, 270, 271, 272, 272, 274, 274, 276, 277, 278, 279, 280, 280, 281, 282, 282, 283, 284, 284, 285, 286, 286, 288, 289, 289, 290, 291, 292, 293, 294, 295, 296, 297, 297, 298, 299, 300, 301, 301, 303, 303, 304, 305, 305, 306, 307, 308, 309, 309, 310, 311, 311, 313, 313, 314, 315, 315, 316, 317, 317, 318, 319, 320, 320, 321, 322, 322, 323, 324, 324, 325, 326, 327, 328, 328, 329, 330, 330, 331, 332, 332, 333, 334, 334, 335, 336, 336, 337, 338, 339, 340, 341, 342, 342, 344, 344, 346, 346, 347, 348, 348, 349, 350, 350, 352, 353, 353, 354, 355, 355, 356, 357, 358, 359, 360, 361, 361, 363, 363, 364, 365, 365, 366, 367, 367, 368, 369, 371, 372, 373, 374, 376, 377, 378, 379, 379, 380, 381, 381, 382, 383, 384, 384, 385, 386, 386, 387, 388, 388, 389, 390, 392, 392, 393, 394, 394, 395, 396, 396, 397, 398, 398, 399, 400, 401, 402, 403, 404, 405, 406, 406, 407, 408, 409, 410, 410, 411, 412, 413, 414, 414, 416, 417, 418, 419, 419, 420, 421, 421, 422, 423, 423, 424, 425, 426, 427, 427, 428, 430, 431, 431, 432, 433, 433, 434, 435, 436, 437, 438, 439, 441, 443, 443, 444, 445, 445, 446, 448, 449, 450, 450, 451, 452, 452, 454, 454, 455, 456, 456, 457, 458, 459, 460, 460, 461, 462, 462, 463, 464, 465, 466, 466, 468, 468, 469, 470, 470, 471, 472, 472, 474, 474, 475, 476, 476, 477, 478, 480, 481, 482, 483, 484, 486, 487, 488, 489, 490, 491, 492, 493, 494, 495, 497, 498, 499, 500, 501, 502, 503, 504, 505, 506, 507, 508, 509, 2, 32, 3, 4, 34, 5, 6, 36, 8, 9, 10, 40, 11, 12, 42, 14, 44, 15, 16, 17, 18, 48, 19, 20, 50, 21, 22, 52, 54, 25, 26, 56, 27, 28, 58, 29, 30, 60, 31, 62, 33, 34, 65, 36, 67, 37, 69, 39, 40, 71, 41, 42, 43, 44, 75, 45, 77, 47, 79, 49, 50, 81, 51, 52, 83, 53, 54, 55, 56, 87, 89, 59, 60, 91, 61, 62, 93, 63, 95, 65, 96, 66, 67, 98, 69, 100, 70, 71, 102, 72, 73, 74, 75, 106, 76, 108, 78, 79, 110, 80, 112, 82, 83, 114, 85, 116, 86, 87, 118, 89, 120, 90, 91, 122, 124, 94, 95, 98, 129, 99, 100, 101, 102, 133, 103, 104, 135, 105, 106, 137, 107, 108, 139, 109, 110, 141, 143, 113, 114, 145, 115, 116, 147, 117, 149, 119, 120, 151, 122, 153, 123, 124, 155, 125, 157, 127, 159, 129, 160, 130, 131, 162, 132, 133, 164, 134, 166, 136, 168, 138, 139, 170, 140, 141, 172, 142, 143, 174, 144, 145, 176, 146, 147, 178, 148, 149, 150, 151, 182, 152, 184, 154, 155, 186, 156, 157, 188, 158, 159, 190, 161, 162, 193, 163, 164, 195, 165, 166, 167, 168, 169, 170, 201, 171, 203, 173, 205, 175, 176, 207, 177, 209, 179, 180, 211, 181, 182, 213, 184, 215, 185, 186, 188, 219, 221, 191, 193, 224, 194, 195, 226, 196, 198, 199, 230, 201, 232, 202, 203, 234, 205, 236, 206, 207, 238, 208, 240, 210, 211, 242, 212, 213, 244, 215, 246, 216, 217, 248, 219, 220, 252, 222, 223, 254, 225, 226, 228, 259, 230, 261, 232, 263, 233, 234, 235, 236, 267, 238, 239, 240, 271, 241, 242, 273, 243, 244, 275, 245, 246, 247, 279, 249, 250, 281, 252, 283, 253, 254, 285, 255, 287, 257, 288, 258, 259, 290, 260, 292, 262, 263, 264, 296, 266, 267, 298, 268, 300, 270, 271, 302, 272, 273, 304, 275, 306, 308, 278, 279, 280, 281, 312, 282, 283, 314, 284, 285, 316, 286, 287, 318, 289, 290, 321, 291, 292, 293, 325, 295, 296, 297, 298, 329, 299, 331, 301, 302, 333, 304, 335, 305, 306, 337, 307, 339, 309, 310, 341, 311, 312, 343, 314, 345, 315, 316, 347, 317, 318, 349, 319, 351, 321, 352, 322, 323, 354, 324, 325, 356, 326, 327, 328, 329, 360, 330, 331, 362, 332, 333, 364, 334, 335, 366, 336, 337, 368, 338, 370, 340, 341, 342, 343, 374, 345, 376, 347, 378, 348, 349, 380, 350, 351, 382, 353, 354, 385, 355, 356, 387, 357, 358, 359, 391, 361, 362, 393, 364, 395, 365, 366, 397, 367, 368, 399, 369, 401, 403, 373, 374, 375, 377, 409, 379, 380, 411, 381, 382, 413, 383, 415, 385, 416, 386, 387, 418, 388, 389, 420, 390, 422, 393, 424, 394, 395, 426, 396, 397, 428, 398, 399, 430, 400, 401, 402, 403, 404, 436, 406, 407, 438, 408, 409, 410, 411, 442, 412, 444, 414, 415, 446, 417, 449, 419, 420, 451, 421, 422, 453, 423, 424, 455, 425, 426, 427, 428, 459, 429, 431, 432, 463, 433, 434, 465, 435, 467, 437, 438, 439, 440, 442, 444, 475, 445, 446, 477, 447, 480, 450, 451, 482, 452, 453, 484, 455, 486, 456, 457, 488, 458, 490, 460, 461, 492, 462, 463, 494, 464, 496, 466, 467, 498, 469, 500, 470, 471, 502, 472, 473, 504, 475, 506, 476, 477, 508, 478, 479, 481, 482, 483, 484, 485, 487, 488, 489, 490, 491, 492, 493, 494, 495, 496, 498, 499, 500, 501, 502, 503, 504, 505, 506, 507, 508, 509, 510];
Edge_End = [2, 32, 3, 4, 34, 5, 6, 36, 8, 9, 10, 40, 11, 12, 42, 14, 44, 15, 16, 17, 18, 48, 19, 20, 50, 21, 22, 52, 54, 25, 26, 56, 27, 28, 58, 29, 30, 60, 31, 62, 33, 34, 65, 36, 67, 37, 69, 39, 40, 71, 41, 42, 43, 44, 75, 45, 77, 47, 79, 49, 50, 81, 51, 52, 83, 53, 54, 55, 56, 87, 89, 59, 60, 91, 61, 62, 93, 63, 95, 65, 96, 66, 67, 98, 69, 100, 70, 71, 102, 72, 73, 74, 75, 106, 76, 108, 78, 79, 110, 80, 112, 82, 83, 114, 85, 116, 86, 87, 118, 89, 120, 90, 91, 122, 124, 94, 95, 98, 129, 99, 100, 101, 102, 133, 103, 104, 135, 105, 106, 137, 107, 108, 139, 109, 110, 141, 143, 113, 114, 145, 115, 116, 147, 117, 149, 119, 120, 151, 122, 153, 123, 124, 155, 125, 157, 127, 159, 129, 160, 130, 131, 162, 132, 133, 164, 134, 166, 136, 168, 138, 139, 170, 140, 141, 172, 142, 143, 174, 144, 145, 176, 146, 147, 178, 148, 149, 150, 151, 182, 152, 184, 154, 155, 186, 156, 157, 188, 158, 159, 190, 161, 162, 193, 163, 164, 195, 165, 166, 167, 168, 169, 170, 201, 171, 203, 173, 205, 175, 176, 207, 177, 209, 179, 180, 211, 181, 182, 213, 184, 215, 185, 186, 188, 219, 221, 191, 193, 224, 194, 195, 226, 196, 198, 199, 230, 201, 232, 202, 203, 234, 205, 236, 206, 207, 238, 208, 240, 210, 211, 242, 212, 213, 244, 215, 246, 216, 217, 248, 219, 220, 252, 222, 223, 254, 225, 226, 228, 259, 230, 261, 232, 263, 233, 234, 235, 236, 267, 238, 239, 240, 271, 241, 242, 273, 243, 244, 275, 245, 246, 247, 279, 249, 250, 281, 252, 283, 253, 254, 285, 255, 287, 257, 288, 258, 259, 290, 260, 292, 262, 263, 264, 296, 266, 267, 298, 268, 300, 270, 271, 302, 272, 273, 304, 275, 306, 308, 278, 279, 280, 281, 312, 282, 283, 314, 284, 285, 316, 286, 287, 318, 289, 290, 321, 291, 292, 293, 325, 295, 296, 297, 298, 329, 299, 331, 301, 302, 333, 304, 335, 305, 306, 337, 307, 339, 309, 310, 341, 311, 312, 343, 314, 345, 315, 316, 347, 317, 318, 349, 319, 351, 321, 352, 322, 323, 354, 324, 325, 356, 326, 327, 328, 329, 360, 330, 331, 362, 332, 333, 364, 334, 335, 366, 336, 337, 368, 338, 370, 340, 341, 342, 343, 374, 345, 376, 347, 378, 348, 349, 380, 350, 351, 382, 353, 354, 385, 355, 356, 387, 357, 358, 359, 391, 361, 362, 393, 364, 395, 365, 366, 397, 367, 368, 399, 369, 401, 403, 373, 374, 375, 377, 409, 379, 380, 411, 381, 382, 413, 383, 415, 385, 416, 386, 387, 418, 388, 389, 420, 390, 422, 393, 424, 394, 395, 426, 396, 397, 428, 398, 399, 430, 400, 401, 402, 403, 404, 436, 406, 407, 438, 408, 409, 410, 411, 442, 412, 444, 414, 415, 446, 417, 449, 419, 420, 451, 421, 422, 453, 423, 424, 455, 425, 426, 427, 428, 459, 429, 431, 432, 463, 433, 434, 465, 435, 467, 437, 438, 439, 440, 442, 444, 475, 445, 446, 477, 447, 480, 450, 451, 482, 452, 453, 484, 455, 486, 456, 457, 488, 458, 490, 460, 461, 492, 462, 463, 494, 464, 496, 466, 467, 498, 469, 500, 470, 471, 502, 472, 473, 504, 475, 506, 476, 477, 508, 478, 479, 481, 482, 483, 484, 485, 487, 488, 489, 490, 491, 492, 493, 494, 495, 496, 498, 499, 500, 501, 502, 503, 504, 505, 506, 507, 508, 509, 510, 1, 1, 2, 3, 3, 4, 5, 5, 7, 8, 9, 9, 10, 11, 11, 13, 13, 14, 15, 16, 17, 17, 18, 19, 19, 20, 21, 21, 23, 24, 25, 25, 26, 27, 27, 28, 29, 29, 30, 31, 32, 33, 33, 35, 35, 36, 37, 38, 39, 39, 40, 41, 42, 43, 43, 44, 45, 46, 47, 48, 49, 49, 50, 51, 51, 52, 53, 54, 55, 55, 57, 58, 59, 59, 60, 61, 61, 62, 63, 64, 64, 65, 66, 66, 68, 68, 69, 70, 70, 71, 72, 73, 74, 74, 75, 76, 77, 78, 78, 79, 80, 81, 82, 82, 84, 84, 85, 86, 86, 88, 88, 89, 90, 90, 92, 93, 94, 97, 97, 98, 99, 100, 101, 101, 102, 103, 103, 104, 105, 105, 106, 107, 107, 108, 109, 109, 111, 112, 113, 113, 114, 115, 115, 116, 117, 118, 119, 119, 121, 121, 122, 123, 123, 124, 125, 126, 127, 128, 128, 129, 130, 130, 131, 132, 132, 133, 134, 135, 136, 137, 138, 138, 139, 140, 140, 141, 142, 142, 143, 144, 144, 145, 146, 146, 147, 148, 149, 150, 150, 151, 152, 153, 154, 154, 155, 156, 156, 157, 158, 158, 160, 161, 161, 162, 163, 163, 164, 165, 166, 167, 168, 169, 169, 170, 171, 172, 173, 174, 175, 175, 176, 177, 178, 179, 179, 180, 181, 181, 183, 183, 184, 185, 187, 187, 189, 190, 192, 192, 193, 194, 194, 195, 197, 198, 198, 200, 200, 201, 202, 202, 204, 204, 205, 206, 206, 207, 208, 209, 210, 210, 211, 212, 212, 214, 214, 215, 216, 216, 218, 219, 220, 221, 222, 222, 224, 225, 227, 227, 229, 229, 231, 231, 232, 233, 234, 235, 235, 237, 238, 239, 239, 240, 241, 241, 242, 243, 243, 244, 245, 246, 247, 248, 249, 249, 251, 251, 252, 253, 253, 254, 255, 256, 256, 257, 258, 258, 259, 260, 261, 262, 263, 264, 265, 266, 266, 267, 268, 269, 270, 270, 271, 272, 272, 274, 274, 276, 277, 278, 279, 280, 280, 281, 282, 282, 283, 284, 284, 285, 286, 286, 288, 289, 289, 290, 291, 292, 293, 294, 295, 296, 297, 297, 298, 299, 300, 301, 301, 303, 303, 304, 305, 305, 306, 307, 308, 309, 309, 310, 311, 311, 313, 313, 314, 315, 315, 316, 317, 317, 318, 319, 320, 320, 321, 322, 322, 323, 324, 324, 325, 326, 327, 328, 328, 329, 330, 330, 331, 332, 332, 333, 334, 334, 335, 336, 336, 337, 338, 339, 340, 341, 342, 342, 344, 344, 346, 346, 347, 348, 348, 349, 350, 350, 352, 353, 353, 354, 355, 355, 356, 357, 358, 359, 360, 361, 361, 363, 363, 364, 365, 365, 366, 367, 367, 368, 369, 371, 372, 373, 374, 376, 377, 378, 379, 379, 380, 381, 381, 382, 383, 384, 384, 385, 386, 386, 387, 388, 388, 389, 390, 392, 392, 393, 394, 394, 395, 396, 396, 397, 398, 398, 399, 400, 401, 402, 403, 404, 405, 406, 406, 407, 408, 409, 410, 410, 411, 412, 413, 414, 414, 416, 417, 418, 419, 419, 420, 421, 421, 422, 423, 423, 424, 425, 426, 427, 427, 428, 430, 431, 431, 432, 433, 433, 434, 435, 436, 437, 438, 439, 441, 443, 443, 444, 445, 445, 446, 448, 449, 450, 450, 451, 452, 452, 454, 454, 455, 456, 456, 457, 458, 459, 460, 460, 461, 462, 462, 463, 464, 465, 466, 466, 468, 468, 469, 470, 470, 471, 472, 472, 474, 474, 475, 476, 476, 477, 478, 480, 481, 482, 483, 484, 486, 487, 488, 489, 490, 491, 492, 493, 494, 495, 497, 498, 499, 500, 501, 502, 503, 504, 505, 506, 507, 508, 509];
L = [17, 9, 18, 8, 6, 4, 5, 8, 18, 4, 12, 14, 18, 9, 15, 16, 14, 19, 8, 19, 12, 18, 15, 11, 13, 6, 7, 16, 2, 11, 17, 18, 12, 12, 4, 19, 17, 16, 5, 13, 3, 16, 7, 1, 17, 18, 3, 18, 5, 14, 18, 15, 15, 6, 10, 18, 11, 17, 2, 8, 7, 16, 9, 11, 3, 4, 10, 6, 4, 12, 17, 11, 10, 3, 13, 4, 9, 17, 19, 10, 4, 13, 10, 13, 1, 19, 19, 12, 7, 8, 4, 5, 2, 15, 2, 5, 1, 3, 1, 15, 6, 10, 17, 10, 6, 7, 2, 9, 19, 8, 2, 15, 10, 9, 6, 11, 9, 8, 13, 9, 3, 6, 17, 11, 16, 7, 12, 11, 6, 10, 8, 6, 18, 1, 8, 11, 7, 6, 17, 8, 11, 7, 10, 16, 13, 16, 15, 13, 1, 5, 7, 9, 19, 5, 7, 11, 15, 4, 19, 3, 16, 8, 7, 14, 8, 19, 11, 10, 2, 13, 10, 16, 17, 15, 4, 1, 8, 6, 19, 19, 12, 16, 19, 13, 15, 14, 1, 17, 14, 4, 6, 13, 11, 17, 4, 17, 17, 14, 14, 19, 12, 16, 13, 8, 6, 16, 11, 2, 16, 8, 10, 15, 6, 8, 1, 1, 10, 7, 17, 1, 13, 4, 19, 4, 11, 16, 1, 9, 4, 2, 2, 1, 17, 17, 17, 13, 6, 7, 3, 7, 11, 15, 4, 2, 10, 4, 10, 11, 5, 19, 9, 11, 10, 11, 8, 13, 5, 17, 4, 8, 8, 6, 1, 12, 2, 8, 16, 14, 1, 15, 11, 14, 7, 18, 4, 5, 1, 16, 2, 2, 15, 15, 4, 15, 2, 12, 8, 16, 3, 10, 14, 14, 14, 17, 17, 5, 5, 10, 5, 7, 13, 6, 11, 14, 13, 8, 5, 11, 5, 14, 7, 3, 8, 18, 15, 2, 5, 1, 4, 7, 7, 12, 1, 7, 16, 16, 15, 15, 8, 14, 3, 11, 18, 7, 2, 3, 4, 3, 18, 6, 5, 10, 4, 10, 3, 5, 7, 14, 3, 13, 15, 8, 10, 17, 1, 3, 11, 1, 15, 1, 9, 2, 11, 5, 1, 6, 13, 17, 15, 19, 2, 17, 5, 14, 9, 2, 2, 4, 14, 19, 3, 4, 7, 14, 16, 7, 14, 1, 11, 8, 11, 17, 3, 3, 19, 13, 16, 3, 16, 12, 1, 4, 1, 16, 13, 15, 13, 14, 1, 1, 1, 12, 4, 11, 12, 11, 14, 5, 16, 12, 15, 18, 7, 1, 9, 11, 2, 18, 11, 13, 10, 1, 17, 13, 10, 11, 14, 8, 17, 3, 10, 14, 1, 1, 18, 11, 14, 13, 6, 16, 6, 6, 3, 1, 1, 14, 19, 13, 1, 11, 17, 8, 16, 1, 15, 17, 4, 19, 3, 6, 15, 10, 14, 8, 5, 1, 12, 19, 8, 18, 3, 8, 14, 16, 10, 15, 9, 5, 10, 16, 16, 15, 6, 11, 17, 15, 12, 10, 7, 13, 4, 6, 4, 15, 9, 6, 15, 19, 5, 12, 9, 5, 2, 11, 16, 9, 2, 10, 6, 18, 3, 13, 17, 11, 16, 10, 16, 11, 19, 8, 17, 18, 8, 7, 15, 14, 17, 13, 4, 19, 10, 1, 9, 18, 4, 14, 13, 13, 2, 9, 1, 5, 16, 17, 18, 1, 9, 15, 7, 11, 12, 1, 5, 13, 7, 11, 19, 8, 5, 16, 19, 5, 15, 15, 16, 18, 9, 4, 1, 10, 5, 10, 18, 8, 14, 1, 16, 10, 4, 3, 1, 3, 3, 7, 13, 4, 4, 8, 18, 8, 12, 9, 15, 10, 12, 1, 14, 1, 16, 1, 2, 17, 7, 17, 9, 18, 8, 6, 4, 5, 8, 18, 4, 12, 14, 18, 9, 15, 16, 14, 19, 8, 19, 12, 18, 15, 11, 13, 6, 7, 16, 2, 11, 17, 18, 12, 12, 4, 19, 17, 16, 5, 13, 3, 16, 7, 1, 17, 18, 3, 18, 5, 14, 18, 15, 15, 6, 10, 18, 11, 17, 2, 8, 7, 16, 9, 11, 3, 4, 10, 6, 4, 12, 17, 11, 10, 3, 13, 4, 9, 17, 19, 10, 4, 13, 10, 13, 1, 19, 19, 12, 7, 8, 4, 5, 2, 15, 2, 5, 1, 3, 1, 15, 6, 10, 17, 10, 6, 7, 2, 9, 19, 8, 2, 15, 10, 9, 6, 11, 9, 8, 13, 9, 3, 6, 17, 11, 16, 7, 12, 11, 6, 10, 8, 6, 18, 1, 8, 11, 7, 6, 17, 8, 11, 7, 10, 16, 13, 16, 15, 13, 1, 5, 7, 9, 19, 5, 7, 11, 15, 4, 19, 3, 16, 8, 7, 14, 8, 19, 11, 10, 2, 13, 10, 16, 17, 15, 4, 1, 8, 6, 19, 19, 12, 16, 19, 13, 15, 14, 1, 17, 14, 4, 6, 13, 11, 17, 4, 17, 17, 14, 14, 19, 12, 16, 13, 8, 6, 16, 11, 2, 16, 8, 10, 15, 6, 8, 1, 1, 10, 7, 17, 1, 13, 4, 19, 4, 11, 16, 1, 9, 4, 2, 2, 1, 17, 17, 17, 13, 6, 7, 3, 7, 11, 15, 4, 2, 10, 4, 10, 11, 5, 19, 9, 11, 10, 11, 8, 13, 5, 17, 4, 8, 8, 6, 1, 12, 2, 8, 16, 14, 1, 15, 11, 14, 7, 18, 4, 5, 1, 16, 2, 2, 15, 15, 4, 15, 2, 12, 8, 16, 3, 10, 14, 14, 14, 17, 17, 5, 5, 10, 5, 7, 13, 6, 11, 14, 13, 8, 5, 11, 5, 14, 7, 3, 8, 18, 15, 2, 5, 1, 4, 7, 7, 12, 1, 7, 16, 16, 15, 15, 8, 14, 3, 11, 18, 7, 2, 3, 4, 3, 18, 6, 5, 10, 4, 10, 3, 5, 7, 14, 3, 13, 15, 8, 10, 17, 1, 3, 11, 1, 15, 1, 9, 2, 11, 5, 1, 6, 13, 17, 15, 19, 2, 17, 5, 14, 9, 2, 2, 4, 14, 19, 3, 4, 7, 14, 16, 7, 14, 1, 11, 8, 11, 17, 3, 3, 19, 13, 16, 3, 16, 12, 1, 4, 1, 16, 13, 15, 13, 14, 1, 1, 1, 12, 4, 11, 12, 11, 14, 5, 16, 12, 15, 18, 7, 1, 9, 11, 2, 18, 11, 13, 10, 1, 17, 13, 10, 11, 14, 8, 17, 3, 10, 14, 1, 1, 18, 11, 14, 13, 6, 16, 6, 6, 3, 1, 1, 14, 19, 13, 1, 11, 17, 8, 16, 1, 15, 17, 4, 19, 3, 6, 15, 10, 14, 8, 5, 1, 12, 19, 8, 18, 3, 8, 14, 16, 10, 15, 9, 5, 10, 16, 16, 15, 6, 11, 17, 15, 12, 10, 7, 13, 4, 6, 4, 15, 9, 6, 15, 19, 5, 12, 9, 5, 2, 11, 16, 9, 2, 10, 6, 18, 3, 13, 17, 11, 16, 10, 16, 11, 19, 8, 17, 18, 8, 7, 15, 14, 17, 13, 4, 19, 10, 1, 9, 18, 4, 14, 13, 13, 2, 9, 1, 5, 16, 17, 18, 1, 9, 15, 7, 11, 12, 1, 5, 13, 7, 11, 19, 8, 5, 16, 19, 5, 15, 15, 16, 18, 9, 4, 1, 10, 5, 10, 18, 8, 14, 1, 16, 10, 4, 3, 1, 3, 3, 7, 13, 4, 4, 8, 18, 8, 12, 9, 15, 10, 12, 1, 14, 1, 16, 1, 2, 17, 7];
T = [22, 10, 10, 19, 1, 8, 4, 8, 19, 1, 10, 18, 12, 13, 17, 11, 5, 17, 5, 15, 9, 18, 15, 12, 14, 2, 1, 16, 2, 10, 15, 16, 5, 13, 1, 24, 9, 15, 1, 12, 1, 6, 13, 1, 15, 16, 3, 19, 10, 8, 30, 17, 18, 2, 6, 1, 17, 10, 7, 12, 10, 27, 7, 13, 10, 6, 12, 1, 2, 15, 13, 1, 7, 1, 8, 9, 5, 12, 22, 1, 2, 6, 10, 13, 2, 24, 11, 9, 6, 9, 7, 9, 3, 12, 9, 7, 1, 4, 1, 14, 4, 4, 11, 8, 3, 4, 1, 15, 33, 12, 1, 15, 3, 4, 11, 1, 9, 6, 11, 1, 1, 1, 13, 11, 16, 7, 12, 13, 9, 8, 2, 4, 16, 1, 5, 12, 3, 4, 20, 13, 9, 14, 12, 14, 13, 8, 16, 2, 1, 6, 1, 9, 23, 11, 11, 8, 14, 9, 15, 1, 9, 10, 1, 1, 4, 18, 11, 17, 11, 21, 11, 10, 16, 17, 9, 15, 11, 1, 19, 21, 7, 11, 20, 10, 15, 13, 1, 19, 15, 1, 5, 14, 8, 17, 11, 14, 23, 28, 15, 25, 14, 3, 11, 4, 9, 15, 10, 1, 21, 10, 7, 11, 1, 10, 4, 1, 10, 6, 19, 4, 19, 9, 20, 1, 14, 18, 2, 1, 6, 12, 1, 1, 12, 13, 20, 10, 8, 7, 1, 10, 13, 17, 1, 1, 4, 11, 16, 18, 10, 21, 8, 10, 4, 7, 14, 6, 3, 23, 1, 9, 2, 3, 1, 16, 7, 5, 20, 11, 1, 17, 9, 16, 12, 19, 1, 10, 1, 12, 1, 5, 18, 10, 3, 23, 1, 11, 8, 23, 9, 13, 11, 18, 16, 21, 16, 8, 5, 12, 3, 8, 27, 9, 6, 14, 9, 5, 10, 3, 4, 18, 10, 3, 12, 10, 10, 1, 2, 4, 1, 4, 7, 10, 1, 6, 14, 16, 16, 17, 13, 11, 1, 20, 21, 10, 9, 3, 1, 1, 11, 8, 9, 13, 3, 10, 1, 3, 6, 6, 12, 12, 11, 7, 10, 12, 1, 5, 12, 4, 15, 4, 3, 7, 7, 1, 10, 12, 8, 20, 14, 17, 5, 9, 10, 10, 7, 1, 1, 1, 8, 17, 8, 1, 9, 15, 18, 3, 19, 7, 8, 10, 14, 20, 1, 11, 21, 27, 12, 1, 19, 7, 1, 6, 1, 12, 9, 16, 14, 18, 1, 9, 5, 11, 8, 10, 17, 20, 8, 1, 20, 13, 23, 14, 13, 1, 11, 12, 5, 13, 7, 13, 2, 1, 26, 10, 9, 8, 11, 3, 20, 1, 6, 16, 1, 4, 12, 17, 17, 18, 1, 13, 1, 1, 1, 1, 2, 3, 17, 15, 1, 15, 16, 8, 15, 1, 16, 23, 1, 21, 6, 8, 12, 12, 19, 6, 7, 1, 20, 23, 3, 22, 1, 6, 19, 20, 10, 15, 18, 11, 8, 15, 18, 17, 4, 16, 21, 9, 8, 16, 7, 12, 11, 1, 5, 14, 6, 3, 10, 13, 4, 9, 6, 6, 1, 15, 19, 8, 1, 4, 5, 20, 4, 3, 12, 1, 14, 7, 16, 8, 15, 2, 20, 15, 1, 4, 12, 13, 12, 13, 1, 22, 8, 1, 6, 18, 1, 12, 20, 8, 1, 11, 1, 4, 10, 28, 13, 1, 15, 19, 8, 18, 16, 1, 2, 15, 2, 16, 18, 8, 1, 9, 19, 6, 11, 16, 7, 15, 9, 12, 1, 11, 14, 15, 7, 9, 11, 1, 12, 5, 1, 1, 9, 6, 1, 10, 8, 12, 1, 3, 16, 12, 6, 11, 18, 9, 8, 4, 20, 10, 12, 1, 1, 22, 3, 22, 10, 10, 19, 1, 8, 4, 8, 19, 1, 10, 18, 12, 13, 17, 11, 5, 17, 5, 15, 9, 18, 15, 12, 14, 2, 1, 16, 2, 10, 15, 16, 5, 13, 1, 24, 9, 15, 1, 12, 1, 6, 13, 1, 15, 16, 3, 19, 10, 8, 30, 17, 18, 2, 6, 1, 17, 10, 7, 12, 10, 27, 7, 13, 10, 6, 12, 1, 2, 15, 13, 1, 7, 1, 8, 9, 5, 12, 22, 1, 2, 6, 10, 13, 2, 24, 11, 9, 6, 9, 7, 9, 3, 12, 9, 7, 1, 4, 1, 14, 4, 4, 11, 8, 3, 4, 1, 15, 33, 12, 1, 15, 3, 4, 11, 1, 9, 6, 11, 1, 1, 1, 13, 11, 16, 7, 12, 13, 9, 8, 2, 4, 16, 1, 5, 12, 3, 4, 20, 13, 9, 14, 12, 14, 13, 8, 16, 2, 1, 6, 1, 9, 23, 11, 11, 8, 14, 9, 15, 1, 9, 10, 1, 1, 4, 18, 11, 17, 11, 21, 11, 10, 16, 17, 9, 15, 11, 1, 19, 21, 7, 11, 20, 10, 15, 13, 1, 19, 15, 1, 5, 14, 8, 17, 11, 14, 23, 28, 15, 25, 14, 3, 11, 4, 9, 15, 10, 1, 21, 10, 7, 11, 1, 10, 4, 1, 10, 6, 19, 4, 19, 9, 20, 1, 14, 18, 2, 1, 6, 12, 1, 1, 12, 13, 20, 10, 8, 7, 1, 10, 13, 17, 1, 1, 4, 11, 16, 18, 10, 21, 8, 10, 4, 7, 14, 6, 3, 23, 1, 9, 2, 3, 1, 16, 7, 5, 20, 11, 1, 17, 9, 16, 12, 19, 1, 10, 1, 12, 1, 5, 18, 10, 3, 23, 1, 11, 8, 23, 9, 13, 11, 18, 16, 21, 16, 8, 5, 12, 3, 8, 27, 9, 6, 14, 9, 5, 10, 3, 4, 18, 10, 3, 12, 10, 10, 1, 2, 4, 1, 4, 7, 10, 1, 6, 14, 16, 16, 17, 13, 11, 1, 20, 21, 10, 9, 3, 1, 1, 11, 8, 9, 13, 3, 10, 1, 3, 6, 6, 12, 12, 11, 7, 10, 12, 1, 5, 12, 4, 15, 4, 3, 7, 7, 1, 10, 12, 8, 20, 14, 17, 5, 9, 10, 10, 7, 1, 1, 1, 8, 17, 8, 1, 9, 15, 18, 3, 19, 7, 8, 10, 14, 20, 1, 11, 21, 27, 12, 1, 19, 7, 1, 6, 1, 12, 9, 16, 14, 18, 1, 9, 5, 11, 8, 10, 17, 20, 8, 1, 20, 13, 23, 14, 13, 1, 11, 12, 5, 13, 7, 13, 2, 1, 26, 10, 9, 8, 11, 3, 20, 1, 6, 16, 1, 4, 12, 17, 17, 18, 1, 13, 1, 1, 1, 1, 2, 3, 17, 15, 1, 15, 16, 8, 15, 1, 16, 23, 1, 21, 6, 8, 12, 12, 19, 6, 7, 1, 20, 23, 3, 22, 1, 6, 19, 20, 10, 15, 18, 11, 8, 15, 18, 17, 4, 16, 21, 9, 8, 16, 7, 12, 11, 1, 5, 14, 6, 3, 10, 13, 4, 9, 6, 6, 1, 15, 19, 8, 1, 4, 5, 20, 4, 3, 12, 1, 14, 7, 16, 8, 15, 2, 20, 15, 1, 4, 12, 13, 12, 13, 1, 22, 8, 1, 6, 18, 1, 12, 20, 8, 1, 11, 1, 4, 10, 28, 13, 1, 15, 19, 8, 18, 16, 1, 2, 15, 2, 16, 18, 8, 1, 9, 19, 6, 11, 16, 7, 15, 9, 12, 1, 11, 14, 15, 7, 9, 11, 1, 12, 5, 1, 1, 9, 6, 1, 10, 8, 12, 1, 3, 16, 12, 6, 11, 18, 9, 8, 4, 20, 10, 12, 1, 1, 22, 3];
Lower_Bound = [0, 22, 18, 37, 45, 49, 130, 111, 110, 120, 132, 145, 115, 126, 143, 148, 163, 172, 187, 199, 201, 202, 225, 252, 242, 257, 262, 275, 286, 295, 296, 10, 11, 17, 54, 53, 69, 101, 82, 92, 122, 126, 108, 110, 111, 138, 128, 181, 193, 199, 192, 205, 211, 223, 224, 226, 276, 263, 264, 271, 279, 288, 300, 25, 24, 30, 40, 69, 71, 65, 74, 83, 90, 99, 102, 111, 118, 117, 121, 135, 175, 171, 182, 190, 193, 194, 209, 251, 263, 268, 265, 293, 284, 285, 294, 27, 49, 43, 44, 45, 46, 59, 75, 82, 95, 104, 106, 110, 111, 116, 152, 139, 143, 163, 172, 186, 200, 227, 234, 250, 273, 272, 273, 282, 293, 355, 347, 69, 60, 61, 59, 58, 57, 75, 87, 104, 103, 124, 122, 138, 123, 138, 149, 168, 156, 167, 184, 199, 212, 213, 232, 233, 271, 257, 265, 276, 290, 318, 333, 84, 74, 71, 71, 62, 72, 73, 94, 104, 111, 122, 132, 147, 148, 139, 145, 164, 183, 177, 197, 198, 208, 210, 244, 238, 239, 240, 311, 299, 356, 343, 353, 93, 85, 86, 86, 103, 183, 182, 183, 123, 112, 130, 136, 166, 158, 156, 149, 155, 192, 201, 202, 204, 207, 227, 243, 248, 268, 325, 324, 313, 336, 320, 332, 100, 101, 99, 258, 259, 177, 178, 157, 139, 142, 151, 152, 163, 193, 170, 171, 158, 176, 192, 208, 205, 217, 220, 228, 259, 268, 274, 295, 304, 298, 301, 319, 267, 264, 254, 246, 244, 172, 171, 167, 174, 167, 166, 160, 176, 212, 195, 182, 183, 197, 223, 213, 278, 257, 256, 255, 266, 274, 287, 290, 291, 294, 300, 312, 271, 260, 253, 241, 240, 235, 203, 199, 184, 183, 180, 187, 192, 202, 206, 224, 204, 221, 226, 236, 275, 268, 269, 270, 275, 305, 297, 306, 297, 300, 312, 320, 284, 270, 271, 262, 235, 223, 204, 197, 196, 190, 197, 188, 202, 210, 219, 224, 232, 230, 250, 246, 247, 267, 280, 287, 319, 306, 335, 324, 320, 307, 320, 322, 291, 265, 255, 247, 236, 256, 257, 263, 197, 198, 202, 220, 203, 221, 222, 223, 224, 225, 258, 250, 326, 309, 294, 295, 320, 335, 347, 342, 327, 343, 321, 342, 282, 274, 269, 250, 257, 258, 245, 279, 232, 210, 216, 235, 245, 234, 232, 224, 242, 227, 231, 247, 268, 317, 309, 325, 337, 348, 348, 343, 349, 344, 354, 348, 294, 289, 275, 270, 269, 250, 242, 238, 233, 237, 236, 248, 249, 256, 247, 263, 271, 273, 293, 294, 277, 289, 302, 314, 327, 363, 362, 374, 352, 353, 358, 359, 287, 283, 263, 263, 252, 251, 268, 258, 271, 272, 291, 262, 280, 289, 287, 278, 294, 288, 296, 297, 340, 359, 358, 374, 387, 396, 383, 382, 386, 371, 380, 391, 275, 274, 262, 257, 256, 257, 296, 292, 286, 287, 297, 293, 281, 282, 285, 301, 312, 311, 305, 316, 334, 343, 351, 355, 375, 385, 394, 394, 393, 415, 418];
Upper_Bound = [0, 22, 18, 37, 45, 49, 130, 111, 110, 120, 132, 145, 115, 126, 143, 148, 163, 172, 187, 199, 201, 202, 225, 252, 242, 257, 262, 275, 286, 295, 296, 10, 11, 17, 54, 53, 69, 101, 82, 92, 122, 126, 108, 110, 111, 138, 128, 181, 193, 199, 192, 205, 211, 223, 224, 226, 276, 263, 264, 271, 279, 288, 300, 25, 24, 30, 40, 69, 71, 65, 74, 83, 90, 99, 102, 111, 118, 117, 121, 135, 175, 171, 182, 190, 193, 194, 209, 251, 263, 268, 265, 293, 284, 285, 294, 27, 49, 43, 44, 45, 46, 59, 75, 82, 95, 104, 106, 110, 111, 116, 152, 139, 143, 163, 172, 186, 200, 227, 234, 250, 273, 272, 273, 282, 293, 355, 347, 69, 60, 61, 59, 58, 57, 75, 87, 104, 103, 124, 122, 138, 123, 138, 149, 168, 156, 167, 184, 199, 212, 213, 232, 233, 271, 257, 265, 276, 290, 318, 333, 84, 74, 71, 71, 62, 72, 73, 94, 104, 111, 122, 132, 147, 148, 139, 145, 164, 183, 177, 197, 198, 208, 210, 244, 238, 239, 240, 311, 299, 356, 343, 353, 93, 85, 86, 86, 103, 183, 182, 183, 123, 112, 130, 136, 166, 158, 156, 149, 155, 192, 201, 202, 204, 207, 227, 243, 248, 268, 325, 324, 313, 336, 320, 332, 100, 101, 99, 258, 259, 177, 178, 157, 139, 142, 151, 152, 163, 193, 170, 171, 158, 176, 192, 208, 205, 217, 220, 228, 259, 268, 274, 295, 304, 298, 301, 319, 267, 264, 254, 246, 244, 172, 171, 167, 174, 167, 166, 160, 176, 212, 195, 182, 183, 197, 223, 213, 278, 257, 256, 255, 266, 274, 287, 290, 291, 294, 300, 312, 271, 260, 253, 241, 240, 235, 203, 199, 184, 183, 180, 187, 192, 202, 206, 224, 204, 221, 226, 236, 275, 268, 269, 270, 275, 305, 297, 306, 297, 300, 312, 320, 284, 270, 271, 262, 235, 223, 204, 197, 196, 190, 197, 188, 202, 210, 219, 224, 232, 230, 250, 246, 247, 267, 280, 287, 319, 306, 335, 324, 320, 307, 320, 322, 291, 265, 255, 247, 236, 256, 257, 263, 197, 198, 202, 220, 203, 221, 222, 223, 224, 225, 258, 250, 326, 309, 294, 295, 320, 335, 347, 342, 327, 343, 321, 342, 282, 274, 269, 250, 257, 258, 245, 279, 232, 210, 216, 235, 245, 234, 232, 224, 242, 227, 231, 247, 268, 317, 309, 325, 337, 348, 348, 343, 349, 344, 354, 348, 294, 289, 275, 270, 269, 250, 242, 238, 233, 237, 236, 248, 249, 256, 247, 263, 271, 273, 293, 294, 277, 289, 302, 314, 327, 363, 362, 374, 352, 353, 358, 359, 287, 283, 263, 263, 252, 251, 268, 258, 271, 272, 291, 262, 280, 289, 287, 278, 294, 288, 296, 297, 340, 359, 358, 374, 387, 396, 383, 382, 386, 371, 380, 391, 275, 274, 262, 257, 256, 257, 296, 292, 286, 287, 297, 293, 281, 282, 285, 301, 312, 311, 305, 316, 334, 343, 351, 355, 375, 385, 394, 394, 393, 415, 418];
Start = 1;
End = 510;
Time = 418;
